\* column_knapsack_problem *\
Minimize
knapsack: 21 col_0 + 22 col_1 + 17 col_10 + 21 col_100 + 19 col_101
 + 17 col_102 + 15 col_103 + 18 col_104 + 17 col_105 + 16 col_106 + 20 col_107
 + 16 col_108 + 17 col_109 + 18 col_11 + 16 col_110 + 20 col_111 + 16 col_112
 + 21 col_114 + 16 col_115 + 20 col_116 + 18 col_117 + 21 col_118 + 18 col_12
 + 18 col_120 + 16 col_121 + 17 col_123 + 17 col_124 + 14 col_125 + 18 col_126
 + 20 col_127 + 20 col_128 + 19 col_13 + 19 col_131 + 17 col_132 + 23 col_133
 + 19 col_134 + 19 col_135 + 17 col_136 + 19 col_138 + 20 col_14 + 17 col_140
 + 19 col_142 + 17 col_143 + 16 col_144 + 18 col_145 + 18 col_147 + 17 col_15
 + 18 col_150 + 18 col_151 + 16 col_152 + 19 col_153 + 15 col_154 + 16 col_155
 + 17 col_156 + 19 col_157 + 15 col_159 + 19 col_16 + 16 col_160 + 15 col_161
 + 17 col_162 + 15 col_163 + 20 col_164 + 15 col_165 + 18 col_166 + 15 col_167
 + 19 col_168 + 15 col_169 + 23 col_17 + 19 col_170 + 17 col_171 + 14 col_172
 + 15 col_173 + 16 col_174 + 20 col_175 + 15 col_176 + 17 col_178 + 18 col_179
 + 15 col_180 + 17 col_182 + 16 col_183 + 17 col_185 + 15 col_186 + 18 col_187
 + 18 col_189 + 17 col_190 + 16 col_191 + 14 col_192 + 20 col_193 + 21 col_194
 + 15 col_195 + 15 col_196 + 17 col_197 + 17 col_198 + 18 col_199 + 20 col_2
 + 21 col_20 + 17 col_200 + 15 col_201 + 15 col_202 + 18 col_203 + 18 col_204
 + 20 col_205 + 18 col_206 + 18 col_207 + 15 col_208 + 15 col_209 + 19 col_210
 + 16 col_211 + 17 col_212 + 14 col_213 + 19 col_214 + 21 col_218 + 17 col_219
 + 21 col_22 + 20 col_221 + 15 col_222 + 16 col_224 + 17 col_225 + 18 col_226
 + 16 col_227 + 16 col_228 + 20 col_229 + 15 col_230 + 17 col_231 + 19 col_232
 + 18 col_233 + 15 col_236 + 18 col_237 + 16 col_239 + 18 col_240 + 17 col_241
 + 20 col_242 + 18 col_244 + 20 col_245 + 17 col_247 + 21 col_249 + 17 col_251
 + 18 col_252 + 16 col_253 + 22 col_254 + 17 col_255 + 15 col_256 + 19 col_258
 + 18 col_259 + 20 col_260 + 20 col_262 + 16 col_263 + 16 col_264 + 18 col_265
 + 18 col_266 + 19 col_267 + 18 col_268 + 15 col_269 + 15 col_270 + 19 col_271
 + 22 col_272 + 19 col_274 + 20 col_275 + 18 col_276 + 18 col_278 + 16 col_279
 + 17 col_28 + 17 col_281 + 20 col_282 + 18 col_283 + 18 col_284 + 19 col_285
 + 16 col_289 + 21 col_291 + 21 col_293 + 20 col_295 + 20 col_296 + 20 col_297
 + 14 col_298 + 14 col_299 + 22 col_3 + 19 col_30 + 20 col_300 + 19 col_302
 + 18 col_303 + 16 col_305 + 20 col_309 + 18 col_313 + 20 col_314 + 23 col_315
 + 18 col_316 + 17 col_317 + 18 col_319 + 17 col_325 + 16 col_327 + 16 col_328
 + 23 col_329 + 22 col_33 + 17 col_333 + 17 col_335 + 17 col_336 + 16 col_338
 + 16 col_339 + 15 col_340 + 17 col_342 + 20 col_344 + 19 col_346 + 21 col_348
 + 20 col_349 + 18 col_35 + 18 col_352 + 17 col_354 + 17 col_355 + 19 col_357
 + 16 col_358 + 19 col_359 + 19 col_365 + 19 col_366 + 19 col_367 + 20 col_370
 + 18 col_371 + 18 col_372 + 15 col_376 + 17 col_378 + 18 col_385 + 19 col_386
 + 16 col_387 + 21 col_388 + 18 col_389 + 16 col_39 + 20 col_390 + 19 col_391
 + 19 col_392 + 20 col_393 + 16 col_394 + 19 col_396 + 20 col_397 + 17 col_399
 + 21 col_4 + 18 col_40 + 16 col_400 + 20 col_401 + 23 col_406 + 20 col_408
 + 23 col_409 + 21 col_410 + 21 col_411 + 20 col_413 + 16 col_416 + 19 col_42
 + 17 col_420 + 20 col_421 + 19 col_422 + 18 col_424 + 19 col_425 + 16 col_426
 + 14 col_427 + 19 col_428 + 16 col_429 + 19 col_43 + 16 col_430 + 16 col_431
 + 20 col_432 + 16 col_433 + 20 col_434 + 19 col_438 + 22 col_440 + 19 col_441
 + 19 col_442 + 19 col_444 + 18 col_445 + 20 col_446 + 18 col_447 + 19 col_448
 + 17 col_449 + 17 col_45 + 18 col_450 + 20 col_451 + 19 col_452 + 15 col_453
 + 20 col_454 + 22 col_455 + 20 col_456 + 23 col_457 + 23 col_458 + 22 col_459
 + 19 col_46 + 23 col_460 + 20 col_461 + 22 col_462 + 19 col_463 + 22 col_464
 + 22 col_465 + 18 col_48 + 16 col_49 + 19 col_5 + 18 col_50 + 17 col_51
 + 17 col_52 + 19 col_53 + 16 col_54 + 16 col_55 + 16 col_56 + 17 col_57
 + 17 col_58 + 14 col_59 + 17 col_6 + 18 col_60 + 17 col_61 + 19 col_64
 + 18 col_65 + 21 col_66 + 19 col_67 + 18 col_68 + 22 col_69 + 23 col_7
 + 18 col_71 + 17 col_72 + 17 col_73 + 15 col_74 + 16 col_75 + 18 col_76
 + 18 col_77 + 16 col_78 + 14 col_79 + 21 col_8 + 19 col_82 + 18 col_85
 + 22 col_86 + 20 col_87 + 19 col_88 + 19 col_89 + 22 col_9 + 18 col_90
 + 20 col_91 + 16 col_94 + 18 col_96 + 21 col_97 + 16 col_98
Subject To
sensitivity: 2 col_0 + col_1 + 6 col_10 + 2 col_100 + 4 col_101 + 6 col_102
 + 8 col_103 + 5 col_104 + 6 col_105 + 7 col_106 + 3 col_107 + 7 col_108
 + 6 col_109 + 5 col_11 + 7 col_110 + 3 col_111 + 7 col_112 + 2 col_114
 + 7 col_115 + 3 col_116 + 5 col_117 + 2 col_118 + 5 col_12 + 5 col_120
 + 7 col_121 + 6 col_123 + 6 col_124 + 9 col_125 + 5 col_126 + 3 col_127
 + 3 col_128 + 4 col_13 + 4 col_131 + 6 col_132 + 4 col_134 + 4 col_135
 + 6 col_136 + 4 col_138 + 3 col_14 + 6 col_140 + 4 col_142 + 6 col_143
 + 7 col_144 + 5 col_145 + 5 col_147 + 6 col_15 + 5 col_150 + 5 col_151
 + 7 col_152 + 4 col_153 + 8 col_154 + 7 col_155 + 6 col_156 + 4 col_157
 + 8 col_159 + 4 col_16 + 7 col_160 + 8 col_161 + 6 col_162 + 8 col_163
 + 3 col_164 + 8 col_165 + 5 col_166 + 8 col_167 + 4 col_168 + 8 col_169
 + 4 col_170 + 6 col_171 + 9 col_172 + 8 col_173 + 7 col_174 + 3 col_175
 + 8 col_176 + 6 col_178 + 5 col_179 + 8 col_180 + 6 col_182 + 7 col_183
 + 6 col_185 + 8 col_186 + 5 col_187 + 5 col_189 + 6 col_190 + 7 col_191
 + 9 col_192 + 3 col_193 + 2 col_194 + 8 col_195 + 8 col_196 + 6 col_197
 + 6 col_198 + 5 col_199 + 3 col_2 + 2 col_20 + 6 col_200 + 8 col_201
 + 8 col_202 + 5 col_203 + 5 col_204 + 3 col_205 + 5 col_206 + 5 col_207
 + 8 col_208 + 8 col_209 + 4 col_210 + 7 col_211 + 6 col_212 + 9 col_213
 + 4 col_214 + 2 col_218 + 6 col_219 + 2 col_22 + 3 col_221 + 8 col_222
 + 7 col_224 + 6 col_225 + 5 col_226 + 7 col_227 + 7 col_228 + 3 col_229
 + 8 col_230 + 6 col_231 + 4 col_232 + 5 col_233 + 8 col_236 + 5 col_237
 + 7 col_239 + 5 col_240 + 6 col_241 + 3 col_242 + 5 col_244 + 3 col_245
 + 6 col_247 + 2 col_249 + 6 col_251 + 5 col_252 + 7 col_253 + col_254
 + 6 col_255 + 8 col_256 + 4 col_258 + 5 col_259 + 3 col_260 + 3 col_262
 + 7 col_263 + 7 col_264 + 5 col_265 + 5 col_266 + 4 col_267 + 5 col_268
 + 8 col_269 + 8 col_270 + 4 col_271 + col_272 + 4 col_274 + 3 col_275
 + 5 col_276 + 5 col_278 + 7 col_279 + 6 col_28 + 6 col_281 + 3 col_282
 + 5 col_283 + 5 col_284 + 4 col_285 + 7 col_289 + 2 col_291 + 2 col_293
 + 3 col_295 + 3 col_296 + 3 col_297 + 9 col_298 + 9 col_299 + col_3
 + 4 col_30 + 3 col_300 + 4 col_302 + 5 col_303 + 7 col_305 + 3 col_309
 + 5 col_313 + 3 col_314 + 5 col_316 + 6 col_317 + 5 col_319 + 6 col_325
 + 7 col_327 + 7 col_328 + col_33 + 6 col_333 + 6 col_335 + 6 col_336
 + 7 col_338 + 7 col_339 + 8 col_340 + 6 col_342 + 3 col_344 + 4 col_346
 + 2 col_348 + 3 col_349 + 5 col_35 + 5 col_352 + 6 col_354 + 6 col_355
 + 4 col_357 + 7 col_358 + 4 col_359 + 4 col_365 + 4 col_366 + 4 col_367
 + 3 col_370 + 5 col_371 + 5 col_372 + 8 col_376 + 6 col_378 + 5 col_385
 + 4 col_386 + 7 col_387 + 2 col_388 + 5 col_389 + 7 col_39 + 3 col_390
 + 4 col_391 + 4 col_392 + 3 col_393 + 7 col_394 + 4 col_396 + 3 col_397
 + 6 col_399 + 2 col_4 + 5 col_40 + 7 col_400 + 3 col_401 + 3 col_408
 + 2 col_410 + 2 col_411 + 3 col_413 + 7 col_416 + 4 col_42 + 6 col_420
 + 3 col_421 + 4 col_422 + 5 col_424 + 4 col_425 + 7 col_426 + 9 col_427
 + 4 col_428 + 7 col_429 + 4 col_43 + 7 col_430 + 7 col_431 + 3 col_432
 + 7 col_433 + 3 col_434 + 4 col_438 + col_440 + 4 col_441 + 4 col_442
 + 4 col_444 + 5 col_445 + 3 col_446 + 5 col_447 + 4 col_448 + 6 col_449
 + 6 col_45 + 5 col_450 + 3 col_451 + 4 col_452 + 8 col_453 + 3 col_454
 + col_455 + 3 col_456 + col_459 + 4 col_46 + 3 col_461 + col_462 + 4 col_463
 + col_464 + col_465 + 5 col_48 + 7 col_49 + 4 col_5 + 5 col_50 + 6 col_51
 + 6 col_52 + 4 col_53 + 7 col_54 + 7 col_55 + 7 col_56 + 6 col_57 + 6 col_58
 + 9 col_59 + 6 col_6 + 5 col_60 + 6 col_61 + 4 col_64 + 5 col_65 + 2 col_66
 + 4 col_67 + 5 col_68 + col_69 + 5 col_71 + 6 col_72 + 6 col_73 + 8 col_74
 + 7 col_75 + 5 col_76 + 5 col_77 + 7 col_78 + 9 col_79 + 2 col_8 + 4 col_82
 + 5 col_85 + col_86 + 3 col_87 + 4 col_88 + 4 col_89 + col_9 + 5 col_90
 + 3 col_91 + 7 col_94 + 5 col_96 + 2 col_97 + 7 col_98 >= 163.3
Bounds
 col_0 <= 1
 col_1 <= 1
 col_10 <= 1
 col_100 <= 1
 col_101 <= 1
 col_102 <= 1
 col_103 <= 1
 col_104 <= 1
 col_105 <= 1
 col_106 <= 1
 col_107 <= 1
 col_108 <= 1
 col_109 <= 1
 col_11 <= 1
 col_110 <= 1
 col_111 <= 1
 col_112 <= 1
 col_114 <= 1
 col_115 <= 1
 col_116 <= 1
 col_117 <= 1
 col_118 <= 1
 col_12 <= 1
 col_120 <= 1
 col_121 <= 1
 col_123 <= 1
 col_124 <= 1
 col_125 <= 1
 col_126 <= 1
 col_127 <= 1
 col_128 <= 1
 col_13 <= 1
 col_131 <= 1
 col_132 <= 1
 col_133 <= 1
 col_134 <= 1
 col_135 <= 1
 col_136 <= 1
 col_138 <= 1
 col_14 <= 1
 col_140 <= 1
 col_142 <= 1
 col_143 <= 1
 col_144 <= 1
 col_145 <= 1
 col_147 <= 1
 col_15 <= 1
 col_150 <= 1
 col_151 <= 1
 col_152 <= 1
 col_153 <= 1
 col_154 <= 1
 col_155 <= 1
 col_156 <= 1
 col_157 <= 1
 col_159 <= 1
 col_16 <= 1
 col_160 <= 1
 col_161 <= 1
 col_162 <= 1
 col_163 <= 1
 col_164 <= 1
 col_165 <= 1
 col_166 <= 1
 col_167 <= 1
 col_168 <= 1
 col_169 <= 1
 col_17 <= 1
 col_170 <= 1
 col_171 <= 1
 col_172 <= 1
 col_173 <= 1
 col_174 <= 1
 col_175 <= 1
 col_176 <= 1
 col_178 <= 1
 col_179 <= 1
 col_180 <= 1
 col_182 <= 1
 col_183 <= 1
 col_185 <= 1
 col_186 <= 1
 col_187 <= 1
 col_189 <= 1
 col_190 <= 1
 col_191 <= 1
 col_192 <= 1
 col_193 <= 1
 col_194 <= 1
 col_195 <= 1
 col_196 <= 1
 col_197 <= 1
 col_198 <= 1
 col_199 <= 1
 col_2 <= 1
 col_20 <= 1
 col_200 <= 1
 col_201 <= 1
 col_202 <= 1
 col_203 <= 1
 col_204 <= 1
 col_205 <= 1
 col_206 <= 1
 col_207 <= 1
 col_208 <= 1
 col_209 <= 1
 col_210 <= 1
 col_211 <= 1
 col_212 <= 1
 col_213 <= 1
 col_214 <= 1
 col_218 <= 1
 col_219 <= 1
 col_22 <= 1
 col_221 <= 1
 col_222 <= 1
 col_224 <= 1
 col_225 <= 1
 col_226 <= 1
 col_227 <= 1
 col_228 <= 1
 col_229 <= 1
 col_230 <= 1
 col_231 <= 1
 col_232 <= 1
 col_233 <= 1
 col_236 <= 1
 col_237 <= 1
 col_239 <= 1
 col_240 <= 1
 col_241 <= 1
 col_242 <= 1
 col_244 <= 1
 col_245 <= 1
 col_247 <= 1
 col_249 <= 1
 col_251 <= 1
 col_252 <= 1
 col_253 <= 1
 col_254 <= 1
 col_255 <= 1
 col_256 <= 1
 col_258 <= 1
 col_259 <= 1
 col_260 <= 1
 col_262 <= 1
 col_263 <= 1
 col_264 <= 1
 col_265 <= 1
 col_266 <= 1
 col_267 <= 1
 col_268 <= 1
 col_269 <= 1
 col_270 <= 1
 col_271 <= 1
 col_272 <= 1
 col_274 <= 1
 col_275 <= 1
 col_276 <= 1
 col_278 <= 1
 col_279 <= 1
 col_28 <= 1
 col_281 <= 1
 col_282 <= 1
 col_283 <= 1
 col_284 <= 1
 col_285 <= 1
 col_289 <= 1
 col_291 <= 1
 col_293 <= 1
 col_295 <= 1
 col_296 <= 1
 col_297 <= 1
 col_298 <= 1
 col_299 <= 1
 col_3 <= 1
 col_30 <= 1
 col_300 <= 1
 col_302 <= 1
 col_303 <= 1
 col_305 <= 1
 col_309 <= 1
 col_313 <= 1
 col_314 <= 1
 col_315 <= 1
 col_316 <= 1
 col_317 <= 1
 col_319 <= 1
 col_325 <= 1
 col_327 <= 1
 col_328 <= 1
 col_329 <= 1
 col_33 <= 1
 col_333 <= 1
 col_335 <= 1
 col_336 <= 1
 col_338 <= 1
 col_339 <= 1
 col_340 <= 1
 col_342 <= 1
 col_344 <= 1
 col_346 <= 1
 col_348 <= 1
 col_349 <= 1
 col_35 <= 1
 col_352 <= 1
 col_354 <= 1
 col_355 <= 1
 col_357 <= 1
 col_358 <= 1
 col_359 <= 1
 col_365 <= 1
 col_366 <= 1
 col_367 <= 1
 col_370 <= 1
 col_371 <= 1
 col_372 <= 1
 col_376 <= 1
 col_378 <= 1
 col_385 <= 1
 col_386 <= 1
 col_387 <= 1
 col_388 <= 1
 col_389 <= 1
 col_39 <= 1
 col_390 <= 1
 col_391 <= 1
 col_392 <= 1
 col_393 <= 1
 col_394 <= 1
 col_396 <= 1
 col_397 <= 1
 col_399 <= 1
 col_4 <= 1
 col_40 <= 1
 col_400 <= 1
 col_401 <= 1
 col_406 <= 1
 col_408 <= 1
 col_409 <= 1
 col_410 <= 1
 col_411 <= 1
 col_413 <= 1
 col_416 <= 1
 col_42 <= 1
 col_420 <= 1
 col_421 <= 1
 col_422 <= 1
 col_424 <= 1
 col_425 <= 1
 col_426 <= 1
 col_427 <= 1
 col_428 <= 1
 col_429 <= 1
 col_43 <= 1
 col_430 <= 1
 col_431 <= 1
 col_432 <= 1
 col_433 <= 1
 col_434 <= 1
 col_438 <= 1
 col_440 <= 1
 col_441 <= 1
 col_442 <= 1
 col_444 <= 1
 col_445 <= 1
 col_446 <= 1
 col_447 <= 1
 col_448 <= 1
 col_449 <= 1
 col_45 <= 1
 col_450 <= 1
 col_451 <= 1
 col_452 <= 1
 col_453 <= 1
 col_454 <= 1
 col_455 <= 1
 col_456 <= 1
 col_457 <= 1
 col_458 <= 1
 col_459 <= 1
 col_46 <= 1
 col_460 <= 1
 col_461 <= 1
 col_462 <= 1
 col_463 <= 1
 col_464 <= 1
 col_465 <= 1
 col_48 <= 1
 col_49 <= 1
 col_5 <= 1
 col_50 <= 1
 col_51 <= 1
 col_52 <= 1
 col_53 <= 1
 col_54 <= 1
 col_55 <= 1
 col_56 <= 1
 col_57 <= 1
 col_58 <= 1
 col_59 <= 1
 col_6 <= 1
 col_60 <= 1
 col_61 <= 1
 col_64 <= 1
 col_65 <= 1
 col_66 <= 1
 col_67 <= 1
 col_68 <= 1
 col_69 <= 1
 col_7 <= 1
 col_71 <= 1
 col_72 <= 1
 col_73 <= 1
 col_74 <= 1
 col_75 <= 1
 col_76 <= 1
 col_77 <= 1
 col_78 <= 1
 col_79 <= 1
 col_8 <= 1
 col_82 <= 1
 col_85 <= 1
 col_86 <= 1
 col_87 <= 1
 col_88 <= 1
 col_89 <= 1
 col_9 <= 1
 col_90 <= 1
 col_91 <= 1
 col_94 <= 1
 col_96 <= 1
 col_97 <= 1
 col_98 <= 1
End
